NAME : cgl_88.10431.tour
COMMENT : Length = 10431
COMMENT : Found by LKH-3 [Keld Helsgaun] Fri Nov  8 17:38:22 2024
TYPE : TOUR
DIMENSION : 89
TOUR_SECTION
59
58
46
47
48
60
49
57
56
52
55
51
53
54
50
66
67
68
69
70
71
72
73
74
76
78
77
79
75
80
81
82
83
89
63
64
65
62
61
5
4
1
2
3
19
20
18
17
16
14
15
13
9
12
11
10
8
7
6
21
22
23
25
24
26
27
28
35
34
29
31
30
33
32
84
85
87
86
88
43
41
40
42
39
45
44
36
37
38
-1
EOF
